ola3.in
15
3`
000000000000000
000000000000000
000000000000000
000000000000000
000000000000000
011101000100000
010101000110000
010101000101000
010101000111100
011101110100010
000000000000000
000000000000000
000000000000000
000000000000000
000000000000000
