ola3.out
100100010011100
000000111100110
100000001000100
010110111000110
101010101011001
100110000000010
100101100110101
100000000111010
001010100010110
100100101100000
000110010101011
000000001010011
111000101000010
001011000011100
000111000010100
--->
000101010010000
000000100110011
000001000001001
011110101000110
101000101101000
001000110000110
110101000100100
110110100000000
010101011000110
001000101101000
100110010000110
011100001010000
111101010010010
001000100110110
001001100100010
--->
000011011010011
000011100111011
101111110111001
111110101111111
000000101101001
101101110111111
100101010000111
000100111000111
110101001100100
011001100101001
000010010011100
000000111101110
100010111010111
000010011111110
001111011101110
--->
000000000000000
000000000000000
000000000000000
000000000000000
000000000000000
011101000100000
010101000110000
010101000101000
010101000111100
011101110100010
000000000000000
000000000000000
000000000000000
000000000000000
000000000000000