ola3.in.cnf.out
c ---- [ banner ] ------------------------------------------------------------
c
c KISSAT SAT Solver
c Copyright (c) 2019-2020 Armin Biere JKU Linz
c 
c Version 1.0.3 baef4609163f542dc08f43aef02ce8da0581a2b5
c gcc (Ubuntu 7.5.0-3ubuntu1~18.04) 7.5.0 -W -Wall -O3 -DNEMBEDDED -DNDEBUG -DNMETRICS -DNSTATISTICS
c Fri Sep 11 16:34:13 CEST 2020 Linux dw-Precision-Tower-7910 5.0.0-36-generic x86_64
c
c ---- [ parsing ] -----------------------------------------------------------
c
c opened and reading DIMACS file:
c 
c   ola3.in.cnf
c 
c parsed 'p cnf 900 128475' header
c closing input after reading 4322480 bytes (4 MB)
c finished parsing after 0.13 seconds
c
c ---- [ solving ] -----------------------------------------------------------
c
c  seconds reductions redundant irredundant
c         MB   restarts    trail      variables
c          level  conflicts   glue        remaining
c
c *  0.13 11 0  0  0   0   0 0% 0 128250 675 75%
c {  0.13 11 0  0  0   0   0 0% 0 128250 675 75%
c -  0.19 13 122  1  6 302 154 39% 14 105060 675 75%
c -  0.21 13 83  2 14 902 399 34% 11 105060 675 75%
c }  0.22 13 76  2 14 1001 482 33% 11 105060 675 75%
c [  0.22 13 0  2 14 1001 482 0% 0 105060 675 75%
c O  0.23 13 77  2 14 1002 483 17% 4 105060 675 75%
c -  0.26 13 155  3 14 1803 616 43% 17 105060 675 75%
c u  0.33 13 157  3 15 2501 1029 43% 19 105060 675 75%
c v  0.34 13 157  3 15 2501 1025 43% 19 105060 675 75%
c ]  0.36 13 156  3 15 2533 1054 42% 19 105060 675 75%
c {  0.36 13 76  3 15 2533 1054 33% 11 105060 675 75%
c I  0.37 13 89  3 15 3003 1465 37% 10 105060 675 75%
c -  0.37 13 89  4 15 3003 688 37% 10 105060 675 75%
c -  0.43 13 72  5 88 4503 1113 32% 10 105060 675 75%
c }  0.43 13 72  5 88 4534 1139 32% 10 105060 675 75%
c [  0.43 13 156  5 88 4534 1139 42% 19 105060 675 75%
c B  0.50 13 132  5 89 6005 2491 50% 19 105060 675 75%
c -  0.51 13 131  6 89 6303 1385 48% 21 105060 675 75%
c ]  0.53 14 132  6 90 6779 1796 51% 21 105060 675 75%
c
c  seconds  reductions  redundant   irredundant
c         MB    restarts       trail       variables
c          level   conflicts       glue        remaining
c
c {  0.53 14 72  6 90 6779 1796 32% 10 105060 675 75%
c u  0.61 14 72  6 119 7501 2265 33% 10 105060 675 75%
c v  0.63 14 72  6 119 7501 2234 33% 10 105060 675 75%
c -  0.68 14 66  7 139 8406 1551 31% 10 105060 675 75%
c W  0.79 15 66  7 218 10006 2980 31% 9 105060 675 75%
c -  0.82 15 65  8 262 10806 2108 30% 9 105060 675 75%
c }  0.85 15 60  8 284 11779 2911 28% 9 105060 675 75%
c [  0.85 15 132  8 284 11779 2911 51% 21 105060 675 75%
c s  1.99 15 118  8 284 12501 3560 48% 18 105016 675 75%
c -  2.07 15 113  9 285 13507 2506 45% 18 105016 675 75%
c u  2.13 15 115  9 286 15002 3734 49% 18 105016 675 75%
c v  2.14 15 115  9 286 15002 3690 49% 18 105016 675 75%
c O  2.15 15 115  9 286 15012 3699 49% 18 105016 675 75%
c -  2.19 15 106 10 287 16507 2608 49% 17 105016 675 75%
c ]  2.24 15 105 10 289 19354 5126 51% 16 105016 675 75%
c {  2.24 15 60 10 289 19354 5126 28% 9 105016 675 75%
c -  2.26 15 60 11 302 19808 3006 29% 9 105016 675 75%
c B  2.28 16 61 11 332 21013 4064 29% 9 105016 675 75%
c -  2.34 16 60 12 435 23408 3637 29% 9 105016 675 75%
c u  2.40 16 60 12 515 25004 4879 29% 9 105016 675 75%
c
c  seconds  reductions    redundant  irredundant
c         MB    restarts         trail      variables
c          level     conflicts      glue        remaining
c
c v  2.41 16 60 12 515 25004 4826 29% 9 105016 675 75%
c -  2.47 16 59 13 677 27308 4140 29% 9 105016 675 75%
c W  2.51 16 57 13 691 28014 4759 28% 9 105016 675 75%
c }  2.53 16 57 13 713 29354 5932 28% 9 105016 675 75%
c [  2.54 16 105 13 713 29354 5932 51% 16 105016 675 75%
c -  2.58 16 98 14 714 31508 4601 53% 16 105016 675 75%
c -  2.69 17 96 15 718 36010 4493 59% 18 105016 675 75%
c I  2.69 17 96 15 718 36015 4498 59% 18 105016 675 75%
c s  2.73 17 95 15 718 37501 5837 58% 18 105011 675 75%
c ^  2.75 17 95 15 718 37501 5837 58% 18 105011 675 75%
c u  2.77 17 95 15 718 37504 5670 58% 18 105011 675 75%
c v  2.78 17 95 15 718 37504 5623 58% 18 105011 675 75%
c -  2.86 17 95 16 719 40810 4731 57% 17 105011 675 75%
c ]  2.95 17 96 16 721 44011 7597 58% 18 105011 675 75%
c {  2.95 17 57 16 721 44011 7597 28% 9 105011 675 75%
c B  2.99 17 58 16 862 45016 8535 28% 9 105011 675 75%
c -  3.02 17 58 17 949 45911 5234 28% 9 105011 675 75%
c -  3.16 15 58 18 1157 51314 6208 28% 9 105011 675 75%
c u  3.21 16 58 18 1171 52504 7170 29% 9 105011 675 75%
c v  3.21 16 58 18 1171 52504 7141 29% 9 105011 675 75%
c
c  seconds  reductions     redundant  irredundant
c         MB     restarts         trail      variables
c          level      conflicts      glue        remaining
c
c W  3.31 16 57 18 1274 55019 9403 29% 9 105011 675 75%
c -  3.37 16 58 19 1371 57014 7083 29% 9 105011 675 75%
c }  3.46 16 57 19 1545 61012 10606 29% 9 105011 675 75%
c [  3.47 16 96 19 1545 61012 10606 58% 18 105011 675 75%
c -  3.51 16 96 20 1546 63015 7540 56% 18 105011 675 75%
c #  3.59 16 99 20 1548 66021 10328 57% 19 105011 675 75%
c -  3.67 17 100 21 1550 69315 7135 57% 19 105011 675 75%
c u  3.71 17 101 21 1551 70005 7607 57% 19 105011 675 75%
c v  3.71 17 101 21 1551 70005 7580 57% 19 105011 675 75%
c s  3.85 17 108 21 1552 75002 12115 58% 20 104991 675 75%
c ^  3.90 17 108 21 1552 75002 12115 58% 20 104991 675 75%
c -  3.92 17 109 22 1553 75915 6637 58% 20 104991 675 75%
c B  3.99 17 111 22 1554 78023 8514 58% 20 104991 675 75%
c ]  4.12 17 110 22 1557 81400 11556 57% 19 104991 675 75%
c 1  4.12 17 57 22 1557 81400 11556 29% 9 104991 675 75%
c
c ---- [ result ] ------------------------------------------------------------
c
s SATISFIABLE
v 1 -2 -3 4 -5 -6 -7 8 -9 -10 11 12 13 -14 -15 -16 -17 -18 -19 -20 -21 22 23
v 24 25 -26 -27 28 29 -30 31 -32 -33 -34 -35 -36 -37 -38 39 -40 -41 -42 43 -44
v -45 -46 47 -48 49 50 -51 52 53 54 -55 -56 -57 58 59 -60 61 -62 63 -64 65 -66
v 67 -68 69 -70 71 72 -73 -74 75 76 -77 -78 79 80 -81 -82 -83 -84 -85 -86 -87
v -88 89 -90 91 -92 -93 94 -95 96 97 -98 -99 100 101 -102 103 -104 105 106
v -107 -108 -109 -110 -111 -112 -113 -114 115 116 117 -118 119 -120 -121 -122
v 123 -124 125 -126 127 -128 -129 -130 131 -132 133 134 -135 136 -137 -138 139
v -140 -141 142 -143 144 145 -146 -147 -148 -149 -150 -151 -152 -153 154 155
v -156 -157 158 -159 160 -161 162 -163 164 165 -166 -167 -168 -169 -170 -171
v -172 -173 174 -175 176 -177 -178 179 180 181 182 183 -184 -185 -186 187 -188
v 189 -190 -191 -192 -193 194 -195 -196 -197 198 -199 200 201 -202 -203 -204
v -205 206 207 208 -209 -210 -211 -212 -213 214 215 216 -217 -218 -219 -220
v 221 -222 223 -224 -225 -226 -227 -228 229 -230 231 -232 233 -234 -235 236
v -237 -238 -239 -240 -241 -242 -243 -244 -245 -246 247 -248 -249 250 251 -252
v -253 254 255 -256 -257 -258 -259 -260 261 -262 -263 -264 -265 -266 267 -268
v -269 270 -271 272 273 274 275 -276 277 -278 279 -280 -281 -282 283 284 -285
v 286 -287 288 -289 -290 -291 292 -293 294 295 -296 297 -298 -299 -300 -301
v -302 303 -304 -305 -306 307 308 -309 -310 -311 -312 313 314 -315 316 317
v -318 319 -320 321 -322 -323 -324 325 -326 -327 328 -329 -330 331 332 -333
v 334 335 -336 337 -338 -339 -340 -341 -342 -343 -344 -345 -346 347 -348 349
v -350 351 -352 353 354 -355 -356 -357 358 359 -360 -361 -362 363 -364 -365
v -366 367 -368 369 370 -371 372 -373 -374 -375 376 -377 -378 379 380 -381
v -382 383 -384 -385 -386 -387 388 389 -390 -391 392 393 394 -395 -396 -397
v -398 399 -400 401 -402 -403 -404 -405 406 407 408 409 -410 411 -412 413 -414
v -415 416 -417 -418 419 -420 -421 -422 423 -424 -425 -426 427 -428 -429 430
v 431 -432 433 434 -435 -436 -437 438 -439 -440 441 442 -443 -444 445 -446
v -447 -448 449 -450 -451 -452 -453 -454 455 456 -457 458 459 -460 461 -462
v -463 464 465 -466 -467 -468 -469 470 471 472 -473 -474 475 476 477 -478 479
v 480 481 -482 483 484 485 486 487 488 -489 490 491 492 -493 -494 495 496 497
v 498 499 500 -501 502 -503 504 505 506 507 508 509 510 -511 -512 -513 -514
v -515 -516 517 -518 519 520 -521 522 -523 -524 525 526 -527 528 529 -530 531
v 532 533 -534 535 536 537 538 539 540 541 -542 -543 544 -545 546 -547 548
v -549 -550 -551 -552 553 554 555 -556 -557 -558 559 -560 -561 562 563 564
v -565 -566 -567 568 569 570 571 572 -573 574 -575 576 -577 -578 579 580 -581
v -582 583 -584 -585 -586 587 588 -589 -590 591 592 -593 -594 595 -596 597
v -598 -599 600 -601 -602 -603 -604 605 -606 -607 608 -609 -610 611 612 613
v -614 -615 -616 -617 -618 -619 -620 -621 622 623 624 625 -626 627 628 629
v -630 631 -632 -633 -634 635 -636 637 638 639 -640 641 -642 643 644 645 -646
v -647 -648 -649 650 -651 -652 653 654 655 656 657 658 659 -660 -661 -662 663
v 664 665 666 -667 668 669 670 -671 672 673 674 -675 -676 -677 -678 -679 -680
v -681 -682 -683 -684 -685 -686 -687 -688 -689 -690 -691 -692 -693 -694 -695
v -696 -697 -698 -699 -700 -701 -702 -703 -704 -705 -706 -707 -708 -709 -710
v -711 -712 -713 -714 -715 -716 -717 -718 -719 -720 -721 -722 -723 -724 -725
v -726 -727 -728 -729 -730 -731 -732 -733 -734 -735 -736 -737 -738 -739 -740
v -741 -742 -743 -744 -745 -746 -747 -748 -749 -750 -751 752 753 754 -755 756
v -757 -758 -759 760 -761 -762 -763 -764 -765 -766 767 -768 769 -770 771 -772
v -773 -774 775 776 -777 -778 -779 -780 -781 782 -783 784 -785 786 -787 -788
v -789 790 -791 792 -793 -794 -795 -796 797 -798 799 -800 801 -802 -803 -804
v 805 806 807 808 -809 -810 -811 812 813 814 -815 816 817 818 -819 820 -821
v -822 -823 824 -825 -826 -827 -828 -829 -830 -831 -832 -833 -834 -835 -836
v -837 -838 -839 -840 -841 -842 -843 -844 -845 -846 -847 -848 -849 -850 -851
v -852 -853 -854 -855 -856 -857 -858 -859 -860 -861 -862 -863 -864 -865 -866
v -867 -868 -869 -870 -871 -872 -873 -874 -875 -876 -877 -878 -879 -880 -881
v -882 -883 -884 -885 -886 -887 -888 -889 -890 -891 -892 -893 -894 -895 -896
v -897 -898 -899 -900 0
c
c ---- [ profiling ] ---------------------------------------------------------
c
c           2.25   54.61 %  search
c           1.74   42.17 %  simplify
c           1.27   30.79 %  eliminate
c           1.21   29.46 %  stable
c           1.04   25.14 %  focused
c           0.34    8.36 %  probe
c           0.18    4.33 %  vivify
c           0.14    3.49 %  substitute
c           0.13    3.21 %  parse
c           0.08    2.02 %  walking
c           0.08    1.85 %  reduce
c           0.04    1.01 %  autarky
c           0.01    0.29 %  transitive
c           0.01    0.14 %  failed
c =============================================
c           4.12  100.00 %  total
c
c ---- [ statistics ] --------------------------------------------------------
c
c conflicts:                            81400            19739.56 per second
c decisions:                           219105                2.69 per conflict
c propagations:                       1309426           317537    per second
c reductions:                              22             3700    interval
c rephased:                                12             6783    interval
c restarts:                              1557               52.28 interval
c
c ---- [ resources ] ---------------------------------------------------------
c
c maximum-resident-set-size:         18067456 bytes         17 MB
c process-time:                             4s               4.12 seconds
c
c ---- [ shutting down ] -----------------------------------------------------
c
c exit 10
